solution status: optimal solution found
objective value:                                    0
$_20__6_y                                          12 	(obj:0)
$_20__6_z                                          10 	(obj:0)
$_46_y                                              5 	(obj:0)
$_46_z                                             11 	(obj:0)
$_21__6_y                                          11 	(obj:0)
$_21__6_z                                           5 	(obj:0)
$_22__6_y                                           4 	(obj:0)
$_22__6_z                                          12 	(obj:0)
$_18__6_y                                           5 	(obj:0)
$_18__6_z                                          16 	(obj:0)
$_151_y                                             4 	(obj:0)
$_151_z                                            11 	(obj:0)
$_233_y                                            10 	(obj:0)
$_233_z                                             8 	(obj:0)
$_24__6_y                                           9 	(obj:0)
$_24__6_z                                           9 	(obj:0)
$_19__6_y                                           8 	(obj:0)
$_19__6_z                                          15 	(obj:0)
$_274_y                                            10 	(obj:0)
$_274_z                                             5 	(obj:0)
$_68_y                                              9 	(obj:0)
$_68_z                                              5 	(obj:0)
$_25__6_y                                           9 	(obj:0)
$_25__6_z                                           6 	(obj:0)
$_23__6_y                                           5 	(obj:0)
$_23__6_z                                          12 	(obj:0)
$_192_y                                             6 	(obj:0)
$_192_z                                            11 	(obj:0)
